webassembly/ejemplos_dzn/12/folder12_json_37.dzn
TERM = { '.', 's(2)', 'in_1', 'local_0', 'local_1', 'in_6', 'in_2', 'in_4', 'in_3', 's(1)', 's(0)', 'in_5', 's(3)', 'in_0'};
null = '.';
s = 12;
n = 12;
ndeps = 8;
max_registers_sz = 3;
NR = 0;
registers = [| |];
dependencies = [|'i32.load16_s_0', 'i32.store_1', |'i32.store_1', 'i32.load8_u_2', |'i32.store_3', 'i32.store8_5', |'i32.store_3', 'i32.load16_u_8', |'i32.store8_5', 'i32.store8_9', |'i32.store8_9', 'i32.store_10', |'i32.load8_u_2', 'i32.store_3', |'i32.load16_u_8', 'i32.store8_9'|];
GET_ENUM = { GET1, GET2, GET3};
SET_ENUM = { SET1, SET2, SET3};
TEE_ENUM = { TEE1, TEE2, TEE3};
N = 11;
OP = { 'i32.load16_s_0', 'i32.store_1', 'i32.load8_u_2', 'i32.store_3', 'i32.store8_5', 'i32.load16_u_8', 'i32.const_0', 'i32.store8_9', 'i32.store_10', 'local.get_0', 'local.get_1' };
in_ops = [1, 2, 1, 2, 2, 1, 0, 2, 2, 0, 0 ];
out_ops = [1, 0, 1, 0, 0, 1, 1, 0, 0, 1, 1 ];
in1 = ['in_0', 's(0)', 'in_2', 's(1)', 'local_1', 'local_1', '.', 's(2)', 'in_5', '.', '.' ];
in2 = ['.', 'in_1', '.', 'in_3', 'in_4', '.', '.', 's(3)', 'in_6', '.', '.' ];
in3 = ['.', '.', '.', '.', '.', '.', '.', '.', '.', '.', '.' ];
out1 = ['s(0)', '.', 's(1)', '.', '.', 's(2)', 's(3)', '.', '.', 'local_0', 'local_1' ];
out2 = ['.', '.', '.', '.', '.', '.', '.', '.', '.', '.', '.' ];
out3 = ['.', '.', '.', '.', '.', '.', '.', '.', '.', '.', '.' ];
comm = [false, false, false, false, false, false, false, false, false, false, false ];
gas = [1, 1, 1, 1, 1, 1, 1, 1, 1, 1, 1 ];
sz = [1, 1, 1, 1, 1, 1, 1, 1, 1, 1, 1 ];
stor = [false, true, false, true, true, false, false, true, true, false, false ];
lb = [ 1, 1, 1, 1, 1, 1, 1, 1, 1, 1, 1 ];
ub = [ 12, 12, 12, 12, 12, 12, 12, 12, 12, 12, 12 ];
startstack = [ 'in_0', 'in_1', 'in_2', 'in_3', 'in_4', 'in_5', 'in_6', null, null, null, null, null ];
endstack = [ 'local_0', null, null, null, null, null, null, null, null, null, null, null ];
