webassembly/ejemplos_results/12/folder12_json_37.txt
value = 12;
fgas = [1, 1, 1, 1, 1, 1, 1, 1, 2, 1, 1, 1];
fsize = [1, 1, 1, 1, 1, 1, 1, 1, 1, 1, 1, 1];
states = 
[|    in_0,   in_1,   in_2, in_3, in_4, in_5, in_6, '.', '.', '.', '.', '.'
 |  's(0)',   in_1,   in_2, in_3, in_4, in_5, in_6, '.', '.', '.', '.', '.'
 |    in_5,   in_6,   in_4, in_5, in_6,  '.',  '.', '.', '.', '.', '.', '.'
 |    in_2,   in_3,   in_6,  '.',  '.',  '.',  '.', '.', '.', '.', '.', '.'
 |  's(1)',   in_3,   in_6,  '.',  '.',  '.',  '.', '.', '.', '.', '.', '.'
 |  's(3)',   in_0,    '.',  '.',  '.',  '.',  '.', '.', '.', '.', '.', '.'
 | local_1, 's(3)',   in_0,  '.',  '.',  '.',  '.', '.', '.', '.', '.', '.'
 |  's(2)', 's(3)',   in_0,  '.',  '.',  '.',  '.', '.', '.', '.', '.', '.'
 |  's(3)', 's(2)', 's(3)', in_0,  '.',  '.',  '.', '.', '.', '.', '.', '.'
 |  's(2)', 's(3)',   in_0,  '.',  '.',  '.',  '.', '.', '.', '.', '.', '.'
 | local_1,   in_4,    '.',  '.',  '.',  '.',  '.', '.', '.', '.', '.', '.'
 |     '.',    '.',    '.',  '.',  '.',  '.',  '.', '.', '.', '.', '.', '.'
 | local_0,    '.',    '.',  '.',  '.',  '.',  '.', '.', '.', '.', '.', '.'
 |];
register_states = 
[| '.', '.', '.'
 | '.', '.', '.'
 | '.', '.', '.'
 | '.', '.', '.'
 | '.', '.', '.'
 | '.', '.', '.'
 | '.', '.', '.'
 | '.', '.', '.'
 | '.', '.', '.'
 | '.', '.', '.'
 | '.', '.', '.'
 | '.', '.', '.'
 | '.', '.', '.'
 |];
program = [O('i32.load16_s_0'), O('i32.store_1'), O('i32.store_10'), O('i32.load8_u_2'), O('i32.store_3'), O('local.get_1'), O('i32.load16_u_8'), O('i32.const_0'), POP, O('i32.store8_9'), O('i32.store8_5'), O('local.get_0')];
% time elapsed: 0.49 s
----------
value = 11;
fgas = [1, 1, 1, 1, 1, 1, 1, 1, 1, 1, 1, 0];
fsize = [1, 1, 1, 1, 1, 1, 1, 1, 1, 1, 1, 1];
states = 
[|    in_0,   in_1, in_2, in_3, in_4, in_5, in_6, '.', '.', '.', '.', '.'
 |  's(0)',   in_1, in_2, in_3, in_4, in_5, in_6, '.', '.', '.', '.', '.'
 | local_1,   in_4, in_4, in_5, in_6,  '.',  '.', '.', '.', '.', '.', '.'
 |    in_2,   in_3, in_6,  '.',  '.',  '.',  '.', '.', '.', '.', '.', '.'
 |  's(1)',   in_3, in_6,  '.',  '.',  '.',  '.', '.', '.', '.', '.', '.'
 |    in_0,   in_0,  '.',  '.',  '.',  '.',  '.', '.', '.', '.', '.', '.'
 |  's(3)',   in_0, in_0,  '.',  '.',  '.',  '.', '.', '.', '.', '.', '.'
 | local_1, 's(3)', in_0, in_0,  '.',  '.',  '.', '.', '.', '.', '.', '.'
 |  's(2)', 's(3)', in_0, in_0,  '.',  '.',  '.', '.', '.', '.', '.', '.'
 |    in_5,   in_6,  '.',  '.',  '.',  '.',  '.', '.', '.', '.', '.', '.'
 |     '.',    '.',  '.',  '.',  '.',  '.',  '.', '.', '.', '.', '.', '.'
 | local_0,    '.',  '.',  '.',  '.',  '.',  '.', '.', '.', '.', '.', '.'
 | local_0,    '.',  '.',  '.',  '.',  '.',  '.', '.', '.', '.', '.', '.'
 |];
register_states = 
[| '.', '.', '.'
 | '.', '.', '.'
 | '.', '.', '.'
 | '.', '.', '.'
 | '.', '.', '.'
 | '.', '.', '.'
 | '.', '.', '.'
 | '.', '.', '.'
 | '.', '.', '.'
 | '.', '.', '.'
 | '.', '.', '.'
 | '.', '.', '.'
 | '.', '.', '.'
 |];
program = [O('i32.load16_s_0'), O('i32.store_1'), O('i32.store8_5'), O('i32.load8_u_2'), O('i32.store_3'), O('i32.const_0'), O('local.get_1'), O('i32.load16_u_8'), O('i32.store8_9'), O('i32.store_10'), O('local.get_0'), NOP];
% time elapsed: 0.51 s
----------
==========
% time elapsed: 0.70 s
% [value > 10]
